flow=[(5,1,0)(5,2,0)(5,4,0)(5,6,0)(5,8,0)(5,9,0)(5,10,0)(5,11,0)(5,12,0)(5,13,0)(6,5,8)(6,7,0)(6,10,0)(6,11,0)(7,6,1)(8,9,2)(10,12,2)(11,5,1)(11,6,21)(12,5,0)(12,6,12)(12,9,0)(12,10,0)(12,11,0)(13,12,1)];
